
Log started (V11.0.0) Sun May 18 09:14:07 2008

Tried aggregator 1 time.
Reduced MIP has 530 rows, 15001 columns, and 30030 nonzeros.
Presolve time =    0.11 sec.
Clique table members: 500.
MIP emphasis: balance optimality and feasibility.
MIP search method: dynamic search.
Parallel mode: none, using 1 thread.
Root relaxation solution time =    0.99 sec.

        Nodes                                         Cuts/
   Node  Left     Objective  IInf  Best Integer     Best Node    ItCnt     Gap

*     0+    0                        11256.0000      416.4297      859   96.30%
*     0+    0                          482.0000      416.4297      859   13.60%
      0     0      417.0000    53      482.0000      Fract: 7      898   13.49%
*     0+    0                          461.0000      417.0000      898    9.54%
      0     0      417.0000    60      461.0000     Covers: 2      919    9.54%
*     0+    0                          457.0000      417.0000      919    8.75%
      0     0      417.1531    63      457.0000     Covers: 1     1143    8.72%
      0     0      420.7965    67      457.0000      Cuts: 11     1446    7.92%
      0     0      421.2056    72      457.0000     Covers: 1     1477    7.83%
      0     0      421.5199    67      457.0000       Cuts: 2     1548    7.76%
      0     0      421.8339    65      457.0000       Cuts: 2     1562    7.69%
      0     0      422.1016    68      457.0000     Covers: 2     1627    7.64%
      0     0      422.1016    71      457.0000     Covers: 2     1636    7.64%
*     0+    0                          456.0000      422.1016     1636    7.43%
*     0+    0                          454.0000      422.1016     1636    7.03%
*     0+    0                          435.0000      422.1016     1636    2.97%
      0     2      422.1016    71      435.0000      422.1016     1636    2.97%
*    20+   19                          432.0000      422.1081     1724    2.29%
    100    99      423.0000    40      432.0000      422.1081     4362    2.29%
    200   172      423.0000    49      432.0000      422.1081    12633    2.29%
    300   233      423.0000    47      432.0000      422.1081    23363    2.29%
    400   295      423.3457    53      432.0000      422.1081    32106    2.29%
    500   365      424.7659    49      432.0000      422.1081    37539    2.29%
*   501+  242                          431.0000      427.7836    39452    0.75%
    600   266      430.0000    20      431.0000      428.0000    41257    0.70%
    700   291      430.0000    28      431.0000      428.0000    43464    0.70%
    800   309      430.0000    25      431.0000      428.0000    45591    0.70%
    900   346      428.0000    25      431.0000      428.0000    48524    0.70%
*   901+   64                          430.0000      428.0000    48536    0.47%
   1000   163      428.0000    38      430.0000      428.0000    51181    0.47%
Elapsed time = 112.30 sec. (tree size =  1.74 MB, solutions = 10)
   1100   253      428.0017    33      430.0000      428.0000    54000    0.47%
   1200   330      429.0000    34      430.0000      428.0000    56635    0.47%
   1300   350    infeasible            430.0000      428.0000    62189    0.47%
   1400   368      429.0000    39      430.0000      428.0000    65882    0.47%
   1500   463      428.0000    27      430.0000      428.0000    68805    0.47%
   1600   529      429.0000    35      430.0000      428.0000    71668    0.47%
   1700   578      429.0000    26      430.0000      428.0000    79047    0.47%
   1800   578    infeasible            430.0000      428.0000    99590    0.47%
   1900   588      429.0000    36      430.0000      428.0000   115916    0.47%
*  1901+  382                          429.0000      428.0000   115921    0.23%
   2000   468    infeasible            429.0000      428.0000   122251    0.23%
Elapsed time = 177.05 sec. (tree size =  5.49 MB, solutions = 11)
   2100   512      428.0000    49      429.0000      428.0000   146400    0.23%
   2200   608      428.0000    30      429.0000      428.0000   151436    0.23%
   2300   702      428.0000    36      429.0000      428.0000   158055    0.23%
   2400   774      428.0000    65      429.0000      428.0000   173178    0.23%
   2500   786    infeasible            429.0000      428.0000   210371    0.23%
   2600   844      428.0000    72      429.0000      428.0000   215263    0.23%
   2700   863      428.0000    55      429.0000      428.0000   247710    0.23%
   2800   787    infeasible            429.0000      428.0000   321049    0.23%
   2900   691    infeasible            429.0000      428.0000   397245    0.23%
   3000   621    infeasible            429.0000      428.0000   478767    0.23%
Elapsed time = 383.31 sec. (tree size =  7.92 MB, solutions = 11)
   3100   601      428.0000    53      429.0000      428.0000   527909    0.23%
   3200   657      428.0000    68      429.0000      428.0000   534061    0.23%
   3300   685    infeasible            429.0000      428.0000   541873    0.23%
   3400   699    infeasible            429.0000      428.0000   554706    0.23%
   3500   633    infeasible            429.0000      428.0000   615940    0.23%
   3600   533    infeasible            429.0000      428.0000   691052    0.23%
   3700   443    infeasible            429.0000      428.0000   762254    0.23%
   3800   343    infeasible            429.0000      428.0000   827108    0.23%
   3900   243    infeasible            429.0000      428.0000   872325    0.23%
   4000   143    infeasible            429.0000      428.0000   917670    0.23%
Elapsed time = 643.48 sec. (tree size =  1.87 MB, solutions = 11)
   4100    47      428.0000   129      429.0000      428.0000   968073    0.23%
   4200   122    infeasible            429.0000      428.0000   985211    0.23%
   4300    34    infeasible            429.0000      428.0000  1057925    0.23%

Cover cuts applied:  322
Mixed integer rounding cuts applied:  8
Gomory fractional cuts applied:  5

Solution pool: 11 solutions saved.

MIP - Integer optimal solution:  Objective = 4.2900000000e+002
Solution time =  768.67 sec.  Iterations = 1090737  Nodes = 4357


Incumbent solution
Variable Name           Solution Value
Cmax                        429.000000
X_1_25                        1.000000
X_2_9                         1.000000
X_3_4                         1.000000
X_4_14                        1.000000
X_5_20                        1.000000
X_6_16                        1.000000
X_7_20                        1.000000
X_8_9                         1.000000
X_9_9                         1.000000
X_10_18                       1.000000
X_11_9                        1.000000
X_12_17                       1.000000
X_13_23                       1.000000
X_14_29                       1.000000
X_15_20                       1.000000
X_16_20                       1.000000
X_17_3                        1.000000
X_18_20                       1.000000
X_19_9                        1.000000
X_20_20                       1.000000
X_21_1                        1.000000
X_22_30                       1.000000
X_23_7                        1.000000
X_24_22                       1.000000
X_25_21                       1.000000
X_26_16                       1.000000
X_27_15                       1.000000
X_28_20                       1.000000
X_29_25                       1.000000
X_30_1                        1.000000
X_31_11                       1.000000
X_32_30                       1.000000
X_33_4                        1.000000
X_34_16                       1.000000
X_35_18                       1.000000
X_36_20                       1.000000
X_37_27                       1.000000
X_38_22                       1.000000
X_39_13                       1.000000
X_40_20                       1.000000
X_41_5                        1.000000
X_42_9                        1.000000
X_43_20                       1.000000
X_44_27                       1.000000
X_45_20                       1.000000
X_46_9                        1.000000
X_47_20                       1.000000
X_48_17                       1.000000
X_49_8                        1.000000
X_50_20                       1.000000
X_51_27                       1.000000
X_52_9                        1.000000
X_53_29                       1.000000
X_54_17                       1.000000
X_55_4                        1.000000
X_56_19                       1.000000
X_57_9                        1.000000
X_58_2                        1.000000
X_59_13                       1.000000
X_60_21                       1.000000
X_61_12                       1.000000
X_62_3                        1.000000
X_63_26                       1.000000
X_64_26                       1.000000
X_65_27                       1.000000
X_66_9                        1.000000
X_67_9                        1.000000
X_68_21                       1.000000
X_69_19                       1.000000
X_70_28                       1.000000
X_71_9                        1.000000
X_72_9                        1.000000
X_73_9                        1.000000
X_74_10                       1.000000
X_75_22                       1.000000
X_76_20                       1.000000
X_77_25                       1.000000
X_78_20                       1.000000
X_79_21                       1.000000
X_80_17                       1.000000
X_81_9                        1.000000
X_82_19                       1.000000
X_83_17                       1.000000
X_84_29                       1.000000
X_85_9                        1.000000
X_86_2                        1.000000
X_87_22                       1.000000
X_88_9                        1.000000
X_89_22                       1.000000
X_90_18                       1.000000
X_91_30                       1.000000
X_92_9                        1.000000
X_93_9                        1.000000
X_94_9                        1.000000
X_95_20                       1.000000
X_96_20                       1.000000
X_97_20                       1.000000
X_98_12                       1.000000
X_99_30                       1.000000
X_100_9                       1.000000
X_101_29                      1.000000
X_102_21                      1.000000
X_103_17                      1.000000
X_104_20                      1.000000
X_105_1                       1.000000
X_106_15                      1.000000
X_107_20                      1.000000
X_108_9                       1.000000
X_109_17                      1.000000
X_110_20                      1.000000
X_111_30                      1.000000
X_112_12                      1.000000
X_113_9                       1.000000
X_114_17                      1.000000
X_115_30                      1.000000
X_116_7                       1.000000
X_117_9                       1.000000
X_118_20                      1.000000
X_119_20                      1.000000
X_120_5                       1.000000
X_121_29                      1.000000
X_122_30                      1.000000
X_123_20                      1.000000
X_124_17                      1.000000
X_125_6                       1.000000
X_126_27                      1.000000
X_127_20                      1.000000
X_128_9                       1.000000
X_129_29                      1.000000
X_130_27                      1.000000
X_131_13                      1.000000
X_132_30                      1.000000
X_133_5                       1.000000
X_134_9                       1.000000
X_135_20                      1.000000
X_136_25                      1.000000
X_137_17                      1.000000
X_138_20                      1.000000
X_139_9                       1.000000
X_140_9                       1.000000
X_141_9                       1.000000
X_142_18                      1.000000
X_143_25                      1.000000
X_144_20                      1.000000
X_145_25                      1.000000
X_146_30                      1.000000
X_147_25                      1.000000
X_148_21                      1.000000
X_149_9                       1.000000
X_150_9                       1.000000
X_151_9                       1.000000
X_152_29                      1.000000
X_153_27                      1.000000
X_154_25                      1.000000
X_155_15                      1.000000
X_156_10                      1.000000
X_157_21                      1.000000
X_158_9                       1.000000
X_159_20                      1.000000
X_160_20                      1.000000
X_161_30                      1.000000
X_162_12                      1.000000
X_163_25                      1.000000
X_164_9                       1.000000
X_165_9                       1.000000
X_166_22                      1.000000
X_167_18                      1.000000
X_168_10                      1.000000
X_169_9                       1.000000
X_170_9                       1.000000
X_171_28                      1.000000
X_172_27                      1.000000
X_173_9                       1.000000
X_174_20                      1.000000
X_175_9                       1.000000
X_176_21                      1.000000
X_177_20                      1.000000
X_178_29                      1.000000
X_179_9                       1.000000
X_180_9                       1.000000
X_181_20                      1.000000
X_182_20                      1.000000
X_183_18                      1.000000
X_184_23                      1.000000
X_185_20                      1.000000
X_186_9                       1.000000
X_187_9                       1.000000
X_188_29                      1.000000
X_189_27                      1.000000
X_190_20                      1.000000
X_191_25                      1.000000
X_192_17                      1.000000
X_193_9                       1.000000
X_194_17                      1.000000
X_195_24                      1.000000
X_196_29                      1.000000
X_197_14                      1.000000
X_198_20                      1.000000
X_199_20                      1.000000
X_200_27                      1.000000
X_201_18                      1.000000
X_202_20                      1.000000
X_203_22                      1.000000
X_204_21                      1.000000
X_205_25                      1.000000
X_206_22                      1.000000
X_207_9                       1.000000
X_208_20                      1.000000
X_209_14                      1.000000
X_210_9                       1.000000
X_211_18                      1.000000
X_212_29                      1.000000
X_213_27                      1.000000
X_214_18                      1.000000
X_215_9                       1.000000
X_216_9                       1.000000
X_217_9                       1.000000
X_218_13                      1.000000
X_219_9                       1.000000
X_220_17                      1.000000
X_221_20                      1.000000
X_222_17                      1.000000
X_223_18                      1.000000
X_224_17                      1.000000
X_225_20                      1.000000
X_226_9                       1.000000
X_227_20                      1.000000
X_228_20                      1.000000
X_229_4                       1.000000
X_230_25                      1.000000
X_231_7                       1.000000
X_232_24                      1.000000
X_233_22                      1.000000
X_234_30                      1.000000
X_235_27                      1.000000
X_236_14                      1.000000
X_237_9                       1.000000
X_238_20                      1.000000
X_239_20                      1.000000
X_240_20                      1.000000
X_241_21                      1.000000
X_242_9                       1.000000
X_243_18                      1.000000
X_244_23                      1.000000
X_245_20                      1.000000
X_246_9                       1.000000
X_247_22                      1.000000
X_248_17                      1.000000
X_249_30                      1.000000
X_250_20                      1.000000
X_251_9                       1.000000
X_252_9                       1.000000
X_253_9                       1.000000
X_254_27                      1.000000
X_255_17                      1.000000
X_256_20                      1.000000
X_257_18                      1.000000
X_258_17                      1.000000
X_259_20                      1.000000
X_260_25                      1.000000
X_261_9                       1.000000
X_262_30                      1.000000
X_263_23                      1.000000
X_264_9                       1.000000
X_265_11                      1.000000
X_266_20                      1.000000
X_267_30                      1.000000
X_268_9                       1.000000
X_269_24                      1.000000
X_270_17                      1.000000
X_271_6                       1.000000
X_272_9                       1.000000
X_273_22                      1.000000
X_274_30                      1.000000
X_275_9                       1.000000
X_276_9                       1.000000
X_277_30                      1.000000
X_278_17                      1.000000
X_279_22                      1.000000
X_280_20                      1.000000
X_281_18                      1.000000
X_282_20                      1.000000
X_283_25                      1.000000
X_284_29                      1.000000
X_285_29                      1.000000
X_286_20                      1.000000
X_287_9                       1.000000
X_288_13                      1.000000
X_289_9                       1.000000
X_290_25                      1.000000
X_291_20                      1.000000
X_292_9                       1.000000
X_293_12                      1.000000
X_294_1                       1.000000
X_295_6                       1.000000
X_296_20                      1.000000
X_297_19                      1.000000
X_298_21                      1.000000
X_299_17                      1.000000
X_300_24                      1.000000
X_301_9                       1.000000
X_302_22                      1.000000
X_303_20                      1.000000
X_304_9                       1.000000
X_305_3                       1.000000
X_306_21                      1.000000
X_307_20                      1.000000
X_308_9                       1.000000
X_309_30                      1.000000
X_310_20                      1.000000
X_311_18                      1.000000
X_312_20                      1.000000
X_313_27                      1.000000
X_314_20                      1.000000
X_315_15                      1.000000
X_316_20                      1.000000
X_317_21                      1.000000
X_318_29                      1.000000
X_319_18                      1.000000
X_320_9                       1.000000
X_321_20                      1.000000
X_322_20                      1.000000
X_323_20                      1.000000
X_324_20                      1.000000
X_325_28                      1.000000
X_326_9                       1.000000
X_327_30                      1.000000
X_328_27                      1.000000
X_329_9                       1.000000
X_330_20                      1.000000
X_331_30                      1.000000
X_332_9                       1.000000
X_333_6                       1.000000
X_334_18                      1.000000
X_335_30                      1.000000
X_336_9                       1.000000
X_337_9                       1.000000
X_338_20                      1.000000
X_339_22                      1.000000
X_340_9                       1.000000
X_341_20                      1.000000
X_342_20                      1.000000
X_343_20                      1.000000
X_344_10                      1.000000
X_345_20                      1.000000
X_346_30                      1.000000
X_347_20                      1.000000
X_348_14                      1.000000
X_349_9                       1.000000
X_350_9                       1.000000
X_351_9                       1.000000
X_352_30                      1.000000
X_353_20                      1.000000
X_354_20                      1.000000
X_355_17                      1.000000
X_356_16                      1.000000
X_357_9                       1.000000
X_358_17                      1.000000
X_359_14                      1.000000
X_360_9                       1.000000
X_361_7                       1.000000
X_362_18                      1.000000
X_363_17                      1.000000
X_364_9                       1.000000
X_365_29                      1.000000
X_366_14                      1.000000
X_367_9                       1.000000
X_368_17                      1.000000
X_369_26                      1.000000
X_370_27                      1.000000
X_371_8                       1.000000
X_372_9                       1.000000
X_373_5                       1.000000
X_374_9                       1.000000
X_375_30                      1.000000
X_376_30                      1.000000
X_377_20                      1.000000
X_378_17                      1.000000
X_379_25                      1.000000
X_380_29                      1.000000
X_381_16                      1.000000
X_382_9                       1.000000
X_383_16                      1.000000
X_384_17                      1.000000
X_385_29                      1.000000
X_386_25                      1.000000
X_387_30                      1.000000
X_388_28                      1.000000
X_389_20                      1.000000
X_390_3                       1.000000
X_391_21                      1.000000
X_392_20                      1.000000
X_393_2                       1.000000
X_394_9                       1.000000
X_395_17                      1.000000
X_396_20                      1.000000
X_397_21                      1.000000
X_398_17                      1.000000
X_399_20                      1.000000
X_400_9                       1.000000
X_401_27                      1.000000
X_402_25                      1.000000
X_403_14                      1.000000
X_404_20                      1.000000
X_405_30                      1.000000
X_406_25                      1.000000
X_407_9                       1.000000
X_408_8                       1.000000
X_409_21                      1.000000
X_410_29                      1.000000
X_411_20                      1.000000
X_412_29                      1.000000
X_413_20                      1.000000
X_414_20                      1.000000
X_415_27                      1.000000
X_416_18                      1.000000
X_417_14                      1.000000
X_418_20                      1.000000
X_419_15                      1.000000
X_420_17                      1.000000
X_421_18                      1.000000
X_422_20                      1.000000
X_423_9                       1.000000
X_424_20                      1.000000
X_425_10                      1.000000
X_426_9                       1.000000
X_427_20                      1.000000
X_428_20                      1.000000
X_429_24                      1.000000
X_430_9                       1.000000
X_431_20                      1.000000
X_432_18                      1.000000
X_433_28                      1.000000
X_434_22                      1.000000
X_435_15                      1.000000
X_436_25                      1.000000
X_437_18                      1.000000
X_438_30                      1.000000
X_439_21                      1.000000
X_440_17                      1.000000
X_441_17                      1.000000
X_442_8                       1.000000
X_443_29                      1.000000
X_444_9                       1.000000
X_445_20                      1.000000
X_446_20                      1.000000
X_447_9                       1.000000
X_448_27                      1.000000
X_449_30                      1.000000
X_450_24                      1.000000
X_451_9                       1.000000
X_452_20                      1.000000
X_453_11                      1.000000
X_454_20                      1.000000
X_455_25                      1.000000
X_456_11                      1.000000
X_457_2                       1.000000
X_458_6                       1.000000
X_459_29                      1.000000
X_460_17                      1.000000
X_461_20                      1.000000
X_462_22                      1.000000
X_463_9                       1.000000
X_464_9                       1.000000
X_465_9                       1.000000
X_466_21                      1.000000
X_467_9                       1.000000
X_468_9                       1.000000
X_469_20                      1.000000
X_470_9                       1.000000
X_471_9                       1.000000
X_472_20                      1.000000
X_473_10                      1.000000
X_474_20                      1.000000
X_475_20                      1.000000
X_476_20                      1.000000
X_477_20                      1.000000
X_478_30                      1.000000
X_479_9                       1.000000
X_480_20                      1.000000
X_481_17                      1.000000
X_482_9                       1.000000
X_483_20                      1.000000
X_484_9                       1.000000
X_485_20                      1.000000
X_486_9                       1.000000
X_487_1                       1.000000
X_488_19                      1.000000
X_489_20                      1.000000
X_490_30                      1.000000
X_491_27                      1.000000
X_492_20                      1.000000
X_493_20                      1.000000
X_494_14                      1.000000
X_495_20                      1.000000
X_496_22                      1.000000
X_497_30                      1.000000
X_498_20                      1.000000
X_499_26                      1.000000
X_500_29                      1.000000
All other variables in the range 1-15001 are 0.
